(set-logic HORN)


(declare-fun |h13| ( Int Int Int Int Int Int Int Int Int Int Int Int Int Int Int Int Int Int ) Bool)
(declare-fun |h11| ( Int Int Int Int Int Int Int Int Int Int Int Int Int Int Int Int Int Int ) Bool)
(declare-fun |h19| ( Int Int Int Int Int Int Int Int Int Int Int Int Int Int Int Int Int Int ) Bool)
(declare-fun |h28| ( Int Int Int Int Int Int Int Int Int Int Int Int Int Int Int Int Int Int ) Bool)
(declare-fun |h5| ( Int Int Int Int Int Int Int Int Int Int Int Int Int Int Int Int Int Int ) Bool)
(declare-fun |h23| ( Int Int Int Int Int Int Int Int Int Int Int Int Int Int Int Int Int Int ) Bool)
(declare-fun |h32| ( Int Int Int Int Int Int Int Int Int Int Int Int Int Int Int Int Int Int ) Bool)
(declare-fun |h8| ( Int Int Int Int Int Int Int Int Int Int Int Int Int Int Int Int Int Int ) Bool)
(declare-fun |h27| ( Int Int Int Int Int Int Int Int Int Int Int Int Int Int Int Int Int Int ) Bool)
(declare-fun |h9| ( Int Int Int Int Int Int Int Int Int Int Int Int Int Int Int Int Int Int ) Bool)
(declare-fun |h17| ( Int Int Int Int Int Int Int Int Int Int Int Int Int Int Int Int Int Int ) Bool)
(declare-fun |h20| ( Int Int Int Int Int Int Int Int Int Int Int Int Int Int Int Int Int Int ) Bool)
(declare-fun |h35| ( Int Int Int Int Int Int Int Int Int Int Int Int Int Int Int Int Int Int ) Bool)
(declare-fun |h24| ( Int Int Int Int Int Int Int Int Int Int Int Int Int Int Int Int Int Int ) Bool)
(declare-fun |h26| ( Int Int Int Int Int Int Int Int Int Int Int Int Int Int Int Int Int Int ) Bool)
(declare-fun |CHC_COMP_FALSE| ( ) Bool)
(declare-fun |h1| ( Int Int Int Int Int Int Int Int Int Int Int Int Int Int Int Int Int Int ) Bool)
(declare-fun |h2| ( Int Int Int Int Int Int Int Int Int Int Int Int Int Int Int Int Int Int ) Bool)
(declare-fun |h16| ( Int Int Int Int Int Int Int Int Int Int Int Int Int Int Int Int Int Int ) Bool)
(declare-fun |h14| ( Int Int Int Int Int Int Int Int Int Int Int Int Int Int Int Int Int Int ) Bool)
(declare-fun |h25| ( Int Int Int Int Int Int Int Int Int Int Int Int Int Int Int Int Int Int ) Bool)
(declare-fun |h33| ( Int Int Int Int Int Int Int Int Int Int Int Int Int Int Int Int Int Int ) Bool)
(declare-fun |h10| ( Int Int Int Int Int Int Int Int Int Int Int Int Int Int Int Int Int Int ) Bool)
(declare-fun |h6| ( Int Int Int Int Int Int Int Int Int Int Int Int Int Int Int Int Int Int ) Bool)
(declare-fun |h7| ( Int Int Int Int Int Int Int Int Int Int Int Int Int Int Int Int Int Int ) Bool)
(declare-fun |h21| ( Int Int Int Int Int Int Int Int Int Int Int Int Int Int Int Int Int Int ) Bool)
(declare-fun |h34| ( Int Int Int Int Int Int Int Int Int Int Int Int Int Int Int Int Int Int ) Bool)
(declare-fun |h3| ( Int Int Int Int Int Int Int Int Int Int Int Int Int Int Int Int Int Int ) Bool)
(declare-fun |h29| ( Int Int Int Int Int Int Int Int Int Int Int Int Int Int Int Int Int Int ) Bool)
(declare-fun |h4| ( Int Int Int Int Int Int Int Int Int Int Int Int Int Int Int Int Int Int ) Bool)
(declare-fun |h31| ( Int Int Int Int Int Int Int Int Int Int Int Int Int Int Int Int Int Int ) Bool)
(declare-fun |h18| ( Int Int Int Int Int Int Int Int Int Int Int Int Int Int Int Int Int Int ) Bool)
(declare-fun |h12| ( Int Int Int Int Int Int Int Int Int Int Int Int Int Int Int Int Int Int ) Bool)
(declare-fun |h30| ( Int Int Int Int Int Int Int Int Int Int Int Int Int Int Int Int Int Int ) Bool)
(declare-fun |h22| ( Int Int Int Int Int Int Int Int Int Int Int Int Int Int Int Int Int Int ) Bool)
(declare-fun |h15| ( Int Int Int Int Int Int Int Int Int Int Int Int Int Int Int Int Int Int ) Bool)

(assert
  (forall ( (A Int) (B Int) (C Int) (D Int) (E Int) (F Int) (G Int) (H Int) (I Int) (v_9 Int) (v_10 Int) (v_11 Int) (v_12 Int) (v_13 Int) (v_14 Int) (v_15 Int) (v_16 Int) (v_17 Int) ) 
    (=>
      (and
        (and true
     (= v_9 A)
     (= v_10 B)
     (= v_11 C)
     (= v_12 D)
     (= v_13 E)
     (= v_14 F)
     (= v_15 G)
     (= v_16 H)
     (= v_17 I))
      )
      (h1 A B C D E F G H I v_9 v_10 v_11 v_12 v_13 v_14 v_15 v_16 v_17)
    )
  )
)
(assert
  (forall ( (A Int) (B Int) (C Int) (D Int) (E Int) (F Int) (G Int) (H Int) (I Int) (J Int) (K Int) (L Int) (M Int) (N Int) (O Int) (P Int) (Q Int) (R Int) (S Int) (T Int) (U Int) (V Int) ) 
    (=>
      (and
        (h1 A B C D E F G H I S T U V N O P Q R)
        (and (= L 2) (= K 1) (= J 1) (= M 2))
      )
      (h2 A B C D E F G H I J K L M N O P Q R)
    )
  )
)
(assert
  (forall ( (A Int) (B Int) (C Int) (D Int) (E Int) (F Int) (G Int) (H Int) (I Int) (J Int) (K Int) (L Int) (M Int) (N Int) (O Int) (P Int) (Q Int) (R Int) ) 
    (=>
      (and
        (h2 A B C D E F G H I J K L M N O P Q R)
        true
      )
      (h3 A B C D E F G H I J K L M N O P Q R)
    )
  )
)
(assert
  (forall ( (A Int) (B Int) (C Int) (D Int) (E Int) (F Int) (G Int) (H Int) (I Int) (J Int) (K Int) (L Int) (M Int) (N Int) (O Int) (P Int) (Q Int) (R Int) ) 
    (=>
      (and
        (h3 A B C D E F G H I J K L M N O P Q R)
        true
      )
      (h4 A B C D E F G H I J K L M N O P Q R)
    )
  )
)
(assert
  (forall ( (A Int) (B Int) (C Int) (D Int) (E Int) (F Int) (G Int) (H Int) (I Int) (J Int) (K Int) (L Int) (M Int) (N Int) (O Int) (P Int) (Q Int) (R Int) ) 
    (=>
      (and
        (h4 A B C D E F G H I J K L M N O P Q R)
        true
      )
      (h5 A B C D E F G H I J K L M N O P Q R)
    )
  )
)
(assert
  (forall ( (A Int) (B Int) (C Int) (D Int) (E Int) (F Int) (G Int) (H Int) (I Int) (J Int) (K Int) (L Int) (M Int) (N Int) (O Int) (P Int) (Q Int) (R Int) ) 
    (=>
      (and
        (h32 A B C D E F G H I J K L M N O P Q R)
        true
      )
      (h5 A B C D E F G H I J K L M N O P Q R)
    )
  )
)
(assert
  (forall ( (A Int) (B Int) (C Int) (D Int) (E Int) (F Int) (G Int) (H Int) (I Int) (J Int) (K Int) (L Int) (M Int) (N Int) (O Int) (P Int) (Q Int) (R Int) ) 
    (=>
      (and
        (h5 A B C D E F G H I J K L M N O P Q R)
        true
      )
      (h6 A B C D E F G H I J K L M N O P Q R)
    )
  )
)
(assert
  (forall ( (A Int) (B Int) (C Int) (D Int) (E Int) (F Int) (G Int) (H Int) (I Int) (J Int) (K Int) (L Int) (M Int) (N Int) (O Int) (P Int) (Q Int) (R Int) ) 
    (=>
      (and
        (h6 A B C D E F G H I J K L M N O P Q R)
        true
      )
      (h7 A B C D E F G H I J K L M N O P Q R)
    )
  )
)
(assert
  (forall ( (A Int) (B Int) (C Int) (D Int) (E Int) (F Int) (G Int) (H Int) (I Int) (J Int) (K Int) (L Int) (M Int) (N Int) (O Int) (P Int) (Q Int) (R Int) ) 
    (=>
      (and
        (h7 A B C D E F G H I J K L M N O P Q R)
        true
      )
      (h8 A B C D E F G H I J K L M N O P Q R)
    )
  )
)
(assert
  (forall ( (A Int) (B Int) (C Int) (D Int) (E Int) (F Int) (G Int) (H Int) (I Int) (J Int) (K Int) (L Int) (M Int) (N Int) (O Int) (P Int) (Q Int) (R Int) ) 
    (=>
      (and
        (h8 A B C D E F G H I J K L M N O P Q R)
        (<= Q (- 1))
      )
      (h9 A B C D E F G H I J K L M N O P Q R)
    )
  )
)
(assert
  (forall ( (A Int) (B Int) (C Int) (D Int) (E Int) (F Int) (G Int) (H Int) (I Int) (J Int) (K Int) (L Int) (M Int) (N Int) (O Int) (P Int) (Q Int) (R Int) (S Int) (T Int) ) 
    (=>
      (and
        (h9 A B C D E F G H I J K L M S T P Q R)
        (and (= J (+ (* (- 1) L) N)) (= K (+ (* (- 1) M) O)))
      )
      (h10 A B C D E F G H I J K L M N O P Q R)
    )
  )
)
(assert
  (forall ( (A Int) (B Int) (C Int) (D Int) (E Int) (F Int) (G Int) (H Int) (I Int) (J Int) (K Int) (L Int) (M Int) (N Int) (O Int) (P Int) (Q Int) (R Int) (S Int) (T Int) ) 
    (=>
      (and
        (h11 A B C D E F G H I J K L M S T P Q R)
        (and (= J (+ (* (- 1) L) N)) (= K (+ (* (- 1) M) O)))
      )
      (h10 A B C D E F G H I J K L M N O P Q R)
    )
  )
)
(assert
  (forall ( (A Int) (B Int) (C Int) (D Int) (E Int) (F Int) (G Int) (H Int) (I Int) (J Int) (K Int) (L Int) (M Int) (N Int) (O Int) (P Int) (Q Int) (R Int) ) 
    (=>
      (and
        (h8 A B C D E F G H I J K L M N O P Q R)
        (>= Q 1)
      )
      (h11 A B C D E F G H I J K L M N O P Q R)
    )
  )
)
(assert
  (forall ( (A Int) (B Int) (C Int) (D Int) (E Int) (F Int) (G Int) (H Int) (I Int) (J Int) (K Int) (L Int) (M Int) (N Int) (O Int) (P Int) (Q Int) (R Int) ) 
    (=>
      (and
        (h8 A B C D E F G H I J K L M N O P Q R)
        (= Q 0)
      )
      (h12 A B C D E F G H I J K L M N O P Q R)
    )
  )
)
(assert
  (forall ( (A Int) (B Int) (C Int) (D Int) (E Int) (F Int) (G Int) (H Int) (I Int) (J Int) (K Int) (L Int) (M Int) (N Int) (O Int) (P Int) (Q Int) (R Int) ) 
    (=>
      (and
        (h12 A B C D E F G H I J K L M N O P Q R)
        true
      )
      (h13 A B C D E F G H I J K L M N O P Q R)
    )
  )
)
(assert
  (forall ( (A Int) (B Int) (C Int) (D Int) (E Int) (F Int) (G Int) (H Int) (I Int) (J Int) (K Int) (L Int) (M Int) (N Int) (O Int) (P Int) (Q Int) (R Int) ) 
    (=>
      (and
        (h13 A B C D E F G H I J K L M N O P Q R)
        true
      )
      (h14 A B C D E F G H I J K L M N O P Q R)
    )
  )
)
(assert
  (forall ( (A Int) (B Int) (C Int) (D Int) (E Int) (F Int) (G Int) (H Int) (I Int) (J Int) (K Int) (L Int) (M Int) (N Int) (O Int) (P Int) (Q Int) (R Int) ) 
    (=>
      (and
        (h10 A B C D E F G H I J K L M N O P Q R)
        true
      )
      (h15 A B C D E F G H I J K L M N O P Q R)
    )
  )
)
(assert
  (forall ( (A Int) (B Int) (C Int) (D Int) (E Int) (F Int) (G Int) (H Int) (I Int) (J Int) (K Int) (L Int) (M Int) (N Int) (O Int) (P Int) (Q Int) (R Int) ) 
    (=>
      (and
        (h15 A B C D E F G H I J K L M N O P Q R)
        true
      )
      (h16 A B C D E F G H I J K L M N O P Q R)
    )
  )
)
(assert
  (forall ( (A Int) (B Int) (C Int) (D Int) (E Int) (F Int) (G Int) (H Int) (I Int) (J Int) (K Int) (L Int) (M Int) (N Int) (O Int) (P Int) (Q Int) (R Int) (S Int) (T Int) ) 
    (=>
      (and
        (h16 A B C D E F G H I S K L T N O P Q R)
        (and (= S (+ (- 1) J)) (= T (+ (- 1) M)))
      )
      (h17 A B C D E F G H I J K L M N O P Q R)
    )
  )
)
(assert
  (forall ( (A Int) (B Int) (C Int) (D Int) (E Int) (F Int) (G Int) (H Int) (I Int) (J Int) (K Int) (L Int) (M Int) (N Int) (O Int) (P Int) (Q Int) (R Int) ) 
    (=>
      (and
        (h15 A B C D E F G H I J K L M N O P Q R)
        true
      )
      (h18 A B C D E F G H I J K L M N O P Q R)
    )
  )
)
(assert
  (forall ( (A Int) (B Int) (C Int) (D Int) (E Int) (F Int) (G Int) (H Int) (I Int) (J Int) (K Int) (L Int) (M Int) (N Int) (O Int) (P Int) (Q Int) (R Int) (S Int) ) 
    (=>
      (and
        (h18 A B C D E F G H I S K L M N O P Q R)
        (= S (+ 1 J))
      )
      (h19 A B C D E F G H I J K L M N O P Q R)
    )
  )
)
(assert
  (forall ( (A Int) (B Int) (C Int) (D Int) (E Int) (F Int) (G Int) (H Int) (I Int) (J Int) (K Int) (L Int) (M Int) (N Int) (O Int) (P Int) (Q Int) (R Int) (S Int) ) 
    (=>
      (and
        (h20 A B C D E F G H I S K L M N O P Q R)
        (= S (+ 1 J))
      )
      (h19 A B C D E F G H I J K L M N O P Q R)
    )
  )
)
(assert
  (forall ( (A Int) (B Int) (C Int) (D Int) (E Int) (F Int) (G Int) (H Int) (I Int) (J Int) (K Int) (L Int) (M Int) (N Int) (O Int) (P Int) (Q Int) (R Int) ) 
    (=>
      (and
        (h15 A B C D E F G H I J K L M N O P Q R)
        true
      )
      (h20 A B C D E F G H I J K L M N O P Q R)
    )
  )
)
(assert
  (forall ( (A Int) (B Int) (C Int) (D Int) (E Int) (F Int) (G Int) (H Int) (I Int) (J Int) (K Int) (L Int) (M Int) (N Int) (O Int) (P Int) (Q Int) (R Int) ) 
    (=>
      (and
        (h17 A B C D E F G H I J K L M N O P Q R)
        true
      )
      (h21 A B C D E F G H I J K L M N O P Q R)
    )
  )
)
(assert
  (forall ( (A Int) (B Int) (C Int) (D Int) (E Int) (F Int) (G Int) (H Int) (I Int) (J Int) (K Int) (L Int) (M Int) (N Int) (O Int) (P Int) (Q Int) (R Int) ) 
    (=>
      (and
        (h19 A B C D E F G H I J K L M N O P Q R)
        true
      )
      (h21 A B C D E F G H I J K L M N O P Q R)
    )
  )
)
(assert
  (forall ( (A Int) (B Int) (C Int) (D Int) (E Int) (F Int) (G Int) (H Int) (I Int) (J Int) (K Int) (L Int) (M Int) (N Int) (O Int) (P Int) (Q Int) (R Int) ) 
    (=>
      (and
        (h21 A B C D E F G H I J K L M N O P Q R)
        true
      )
      (h22 A B C D E F G H I J K L M N O P Q R)
    )
  )
)
(assert
  (forall ( (A Int) (B Int) (C Int) (D Int) (E Int) (F Int) (G Int) (H Int) (I Int) (J Int) (K Int) (L Int) (M Int) (N Int) (O Int) (P Int) (Q Int) (R Int) ) 
    (=>
      (and
        (h22 A B C D E F G H I J K L M N O P Q R)
        true
      )
      (h23 A B C D E F G H I J K L M N O P Q R)
    )
  )
)
(assert
  (forall ( (A Int) (B Int) (C Int) (D Int) (E Int) (F Int) (G Int) (H Int) (I Int) (J Int) (K Int) (L Int) (M Int) (N Int) (O Int) (P Int) (Q Int) (R Int) ) 
    (=>
      (and
        (h28 A B C D E F G H I J K L M N O P Q R)
        true
      )
      (h23 A B C D E F G H I J K L M N O P Q R)
    )
  )
)
(assert
  (forall ( (A Int) (B Int) (C Int) (D Int) (E Int) (F Int) (G Int) (H Int) (I Int) (J Int) (K Int) (L Int) (M Int) (N Int) (O Int) (P Int) (Q Int) (R Int) ) 
    (=>
      (and
        (h23 A B C D E F G H I J K L M N O P Q R)
        true
      )
      (h24 A B C D E F G H I J K L M N O P Q R)
    )
  )
)
(assert
  (forall ( (A Int) (B Int) (C Int) (D Int) (E Int) (F Int) (G Int) (H Int) (I Int) (J Int) (K Int) (L Int) (M Int) (N Int) (O Int) (P Int) (Q Int) (R Int) ) 
    (=>
      (and
        (h24 A B C D E F G H I J K L M N O P Q R)
        true
      )
      (h25 A B C D E F G H I J K L M N O P Q R)
    )
  )
)
(assert
  (forall ( (A Int) (B Int) (C Int) (D Int) (E Int) (F Int) (G Int) (H Int) (I Int) (J Int) (K Int) (L Int) (M Int) (N Int) (O Int) (P Int) (Q Int) (R Int) ) 
    (=>
      (and
        (h25 A B C D E F G H I J K L M N O P Q R)
        true
      )
      (h26 A B C D E F G H I J K L M N O P Q R)
    )
  )
)
(assert
  (forall ( (A Int) (B Int) (C Int) (D Int) (E Int) (F Int) (G Int) (H Int) (I Int) (J Int) (K Int) (L Int) (M Int) (N Int) (O Int) (P Int) (Q Int) (R Int) ) 
    (=>
      (and
        (h26 A B C D E F G H I J K L M N O P Q R)
        (<= P (- 1))
      )
      (h27 A B C D E F G H I J K L M N O P Q R)
    )
  )
)
(assert
  (forall ( (A Int) (B Int) (C Int) (D Int) (E Int) (F Int) (G Int) (H Int) (I Int) (J Int) (K Int) (L Int) (M Int) (N Int) (O Int) (P Int) (Q Int) (R Int) (S Int) (T Int) ) 
    (=>
      (and
        (h27 A B C D E F G H I J T S M N O P Q R)
        (and (= S (+ 1 L)) (= T (+ 1 K)))
      )
      (h28 A B C D E F G H I J K L M N O P Q R)
    )
  )
)
(assert
  (forall ( (A Int) (B Int) (C Int) (D Int) (E Int) (F Int) (G Int) (H Int) (I Int) (J Int) (K Int) (L Int) (M Int) (N Int) (O Int) (P Int) (Q Int) (R Int) (S Int) (T Int) ) 
    (=>
      (and
        (h29 A B C D E F G H I J T S M N O P Q R)
        (and (= S (+ 1 L)) (= T (+ 1 K)))
      )
      (h28 A B C D E F G H I J K L M N O P Q R)
    )
  )
)
(assert
  (forall ( (A Int) (B Int) (C Int) (D Int) (E Int) (F Int) (G Int) (H Int) (I Int) (J Int) (K Int) (L Int) (M Int) (N Int) (O Int) (P Int) (Q Int) (R Int) ) 
    (=>
      (and
        (h26 A B C D E F G H I J K L M N O P Q R)
        (>= P 1)
      )
      (h29 A B C D E F G H I J K L M N O P Q R)
    )
  )
)
(assert
  (forall ( (A Int) (B Int) (C Int) (D Int) (E Int) (F Int) (G Int) (H Int) (I Int) (J Int) (K Int) (L Int) (M Int) (N Int) (O Int) (P Int) (Q Int) (R Int) ) 
    (=>
      (and
        (h26 A B C D E F G H I J K L M N O P Q R)
        (= P 0)
      )
      (h30 A B C D E F G H I J K L M N O P Q R)
    )
  )
)
(assert
  (forall ( (A Int) (B Int) (C Int) (D Int) (E Int) (F Int) (G Int) (H Int) (I Int) (J Int) (K Int) (L Int) (M Int) (N Int) (O Int) (P Int) (Q Int) (R Int) ) 
    (=>
      (and
        (h30 A B C D E F G H I J K L M N O P Q R)
        true
      )
      (h31 A B C D E F G H I J K L M N O P Q R)
    )
  )
)
(assert
  (forall ( (A Int) (B Int) (C Int) (D Int) (E Int) (F Int) (G Int) (H Int) (I Int) (J Int) (K Int) (L Int) (M Int) (N Int) (O Int) (P Int) (Q Int) (R Int) ) 
    (=>
      (and
        (h31 A B C D E F G H I J K L M N O P Q R)
        true
      )
      (h32 A B C D E F G H I J K L M N O P Q R)
    )
  )
)
(assert
  (forall ( (A Int) (B Int) (C Int) (D Int) (E Int) (F Int) (G Int) (H Int) (I Int) (J Int) (K Int) (L Int) (M Int) (N Int) (O Int) (P Int) (Q Int) (R Int) ) 
    (=>
      (and
        (h14 A B C D E F G H I J K L M N O P Q R)
        true
      )
      (h33 A B C D E F G H I J K L M N O P Q R)
    )
  )
)
(assert
  (forall ( (A Int) (B Int) (C Int) (D Int) (E Int) (F Int) (G Int) (H Int) (I Int) (J Int) (K Int) (L Int) (M Int) (N Int) (O Int) (P Int) (Q Int) (R Int) ) 
    (=>
      (and
        (h33 A B C D E F G H I J K L M N O P Q R)
        (<= (+ J (* (- 1) K) L (* (- 1) M)) (- 1))
      )
      (h34 A B C D E F G H I J K L M N O P Q R)
    )
  )
)
(assert
  (forall ( (A Int) (B Int) (C Int) (D Int) (E Int) (F Int) (G Int) (H Int) (I Int) (J Int) (K Int) (L Int) (M Int) (N Int) (O Int) (P Int) (Q Int) (R Int) ) 
    (=>
      (and
        (h33 A B C D E F G H I J K L M N O P Q R)
        (>= (+ J (* (- 1) K) L (* (- 1) M)) 1)
      )
      (h35 A B C D E F G H I J K L M N O P Q R)
    )
  )
)
(assert
  (forall ( (A Int) (B Int) (C Int) (D Int) (E Int) (F Int) (G Int) (H Int) (I Int) (J Int) (K Int) (L Int) (M Int) (N Int) (O Int) (P Int) (Q Int) (R Int) ) 
    (=>
      (and
        (h34 A B C D E F G H I J K L M N O P Q R)
        true
      )
      CHC_COMP_FALSE
    )
  )
)
(assert
  (forall ( (A Int) (B Int) (C Int) (D Int) (E Int) (F Int) (G Int) (H Int) (I Int) (J Int) (K Int) (L Int) (M Int) (N Int) (O Int) (P Int) (Q Int) (R Int) ) 
    (=>
      (and
        (h35 A B C D E F G H I J K L M N O P Q R)
        true
      )
      CHC_COMP_FALSE
    )
  )
)
(assert
  (forall ( (CHC_COMP_UNUSED Bool) ) 
    (=>
      (and
        CHC_COMP_FALSE
      )
      false
    )
  )
)

(check-sat)
(exit)
